p cnf 513 1222
a 307 310 315 318 323 442 446 330 336 456 342 345 350 353 357 473 365 368 372 375 380 383 387 390 396 399 403 406 411 414 418 421 7 13 24 30 2 1 40 18 6 12 35 23 29 50 45 60 55 70 65 80 75 85 90 95 105 100 110 115 120 130 125 135 140 145 150 180 162 154 158 175 167 171 185 189 198 193 207 203 217 212 227 222 232 236 240 250 245 255 260 265 274 270 279 284 289 293 297 302 0
d 312 7 185 189 13 0
d 329 446 232 236 2 0
d 326 442 2 0
d 360 473 289 293 2 0
d 339 456 2 0
d 3 2 0
d 4 1 2 0
d 5 1 2 0
d 8 7 0
d 9 6 7 0
d 10 6 7 0
d 11 1 2 6 7 0
d 14 13 0
d 15 12 13 0
d 16 12 13 0
d 17 1 2 6 7 12 13 0
d 19 6 12 0
d 20 18 6 12 0
d 21 18 6 12 0
d 22 1 2 6 7 12 13 18 0
d 25 24 0
d 26 23 24 0
d 27 23 24 0
d 28 1 2 6 7 12 13 18 23 24 0
d 31 30 0
d 32 29 30 0
d 33 29 30 0
d 34 1 2 6 7 12 13 18 23 24 29 30 0
d 36 23 29 0
d 37 35 23 29 0
d 38 35 23 29 0
d 39 1 2 6 7 12 13 18 23 24 29 30 35 0
d 41 18 35 0
d 42 40 18 35 0
d 43 40 18 35 0
d 44 1 2 6 7 12 13 18 23 24 29 30 35 40 0
d 46 7 12 0
d 47 45 7 12 0
d 48 45 7 12 0
d 49 1 2 6 7 12 13 18 23 24 29 30 35 40 45 0
d 51 45 35 0
d 52 50 45 35 0
d 53 50 45 35 0
d 54 1 2 6 7 12 13 18 23 24 29 30 35 40 45 50 0
d 56 6 13 0
d 57 55 6 13 0
d 58 55 6 13 0
d 59 1 2 6 7 12 13 18 23 24 29 30 35 40 45 50 55 0
d 61 55 35 0
d 62 60 55 35 0
d 63 60 55 35 0
d 64 1 2 6 7 12 13 18 23 24 29 30 35 40 45 50 55 60 0
d 66 7 13 0
d 67 65 7 13 0
d 68 65 7 13 0
d 69 1 2 6 7 12 13 18 23 24 29 30 35 40 45 50 55 60 65 0
d 71 65 35 0
d 72 70 65 35 0
d 73 70 65 35 0
d 74 1 2 6 7 12 13 18 23 24 29 30 35 40 45 50 55 60 65 70 0
d 76 24 29 0
d 77 75 24 29 0
d 78 75 24 29 0
d 79 1 2 6 7 12 13 18 23 24 29 30 35 40 45 50 55 60 65 70 75 0
d 81 18 75 0
d 82 80 18 75 0
d 83 80 18 75 0
d 84 1 2 6 7 12 13 18 23 24 29 30 35 40 45 50 55 60 65 70 75 80 0
d 86 45 75 0
d 87 85 45 75 0
d 88 85 45 75 0
d 89 1 2 6 7 12 13 18 23 24 29 30 35 40 45 50 55 60 65 70 75 80 85 0
d 91 55 75 0
d 92 90 55 75 0
d 93 90 55 75 0
d 94 1 2 6 7 12 13 18 23 24 29 30 35 40 45 50 55 60 65 70 75 80 85 90 0
d 96 65 75 0
d 97 95 65 75 0
d 98 95 65 75 0
d 99 1 2 6 7 12 13 18 23 24 29 30 35 40 45 50 55 60 65 70 75 80 85 90 95 0
d 101 23 30 0
d 102 100 23 30 0
d 103 100 23 30 0
d 104 1 2 6 7 12 13 18 23 24 29 30 35 40 45 50 55 60 65 70 75 80 85 90 95 100 0
d 106 18 100 0
d 107 105 18 100 0
d 108 105 18 100 0
d 109 1 2 6 7 12 13 18 23 24 29 30 35 40 45 50 55 60 65 70 75 80 85 90 95 100 105 0
d 111 45 100 0
d 112 110 45 100 0
d 113 110 45 100 0
d 114 1 2 6 7 12 13 18 23 24 29 30 35 40 45 50 55 60 65 70 75 80 85 90 95 100 105 110 0
d 116 55 100 0
d 117 115 55 100 0
d 118 115 55 100 0
d 119 1 2 6 7 12 13 18 23 24 29 30 35 40 45 50 55 60 65 70 75 80 85 90 95 100 105 110 115 0
d 121 65 100 0
d 122 120 65 100 0
d 123 120 65 100 0
d 124 1 2 6 7 12 13 18 23 24 29 30 35 40 45 50 55 60 65 70 75 80 85 90 95 100 105 110 115 120 0
d 126 24 30 0
d 127 125 24 30 0
d 128 125 24 30 0
d 129 1 2 6 7 12 13 18 23 24 29 30 35 40 45 50 55 60 65 70 75 80 85 90 95 100 105 110 115 120 125 0
d 131 18 125 0
d 132 130 18 125 0
d 133 130 18 125 0
d 134 1 2 6 7 12 13 18 23 24 29 30 35 40 45 50 55 60 65 70 75 80 85 90 95 100 105 110 115 120 125 130 0
d 136 45 125 0
d 137 135 45 125 0
d 138 135 45 125 0
d 139 1 2 6 7 12 13 18 23 24 29 30 35 40 45 50 55 60 65 70 75 80 85 90 95 100 105 110 115 120 125 130 135 0
d 141 55 125 0
d 142 140 55 125 0
d 143 140 55 125 0
d 144 1 2 6 7 12 13 18 23 24 29 30 35 40 45 50 55 60 65 70 75 80 85 90 95 100 105 110 115 120 125 130 135 140 0
d 146 65 125 0
d 147 145 65 125 0
d 148 145 65 125 0
d 149 1 2 6 7 12 13 18 23 24 29 30 35 40 45 50 55 60 65 70 75 80 85 90 95 100 105 110 115 120 125 130 135 140 145 0
d 151 150 2 0
d 152 150 2 0
d 153 1 2 6 7 12 13 18 23 24 29 30 35 40 45 50 55 60 65 70 75 80 85 90 95 100 105 110 115 120 125 130 135 140 145 150 0
d 155 154 7 0
d 156 154 7 0
d 157 1 2 6 7 12 13 18 23 24 29 30 35 40 45 50 55 60 65 70 75 80 85 90 95 100 105 110 115 120 125 130 135 140 145 150 154 0
d 159 158 13 0
d 160 158 13 0
d 161 1 2 6 7 12 13 18 23 24 29 30 35 40 45 50 55 60 65 70 75 80 85 90 95 100 105 110 115 120 125 130 135 140 145 150 154 158 0
d 163 154 158 0
d 164 162 154 158 0
d 165 162 154 158 0
d 166 1 2 6 7 12 13 18 23 24 29 30 35 40 45 50 55 60 65 70 75 80 85 90 95 100 105 110 115 120 125 130 135 140 145 150 154 158 162 0
d 168 167 24 0
d 169 167 24 0
d 170 1 2 6 7 12 13 18 23 24 29 30 35 40 45 50 55 60 65 70 75 80 85 90 95 100 105 110 115 120 125 130 135 140 145 150 154 158 162 167 0
d 172 171 30 0
d 173 171 30 0
d 174 1 2 6 7 12 13 18 23 24 29 30 35 40 45 50 55 60 65 70 75 80 85 90 95 100 105 110 115 120 125 130 135 140 145 150 154 158 162 167 171 0
d 176 167 171 0
d 177 175 167 171 0
d 178 175 167 171 0
d 179 1 2 6 7 12 13 18 23 24 29 30 35 40 45 50 55 60 65 70 75 80 85 90 95 100 105 110 115 120 125 130 135 140 145 150 154 158 162 167 171 175 0
d 181 162 175 0
d 182 180 162 175 0
d 183 180 162 175 0
d 184 1 2 6 7 12 13 18 23 24 29 30 35 40 45 50 55 60 65 70 75 80 85 90 95 100 105 110 115 120 125 130 135 140 145 150 154 158 162 167 171 175 180 0
d 186 185 167 0
d 187 185 167 0
d 188 1 2 6 7 12 13 18 23 24 29 30 35 40 45 50 55 60 65 70 75 80 85 90 95 100 105 110 115 120 125 130 135 140 145 150 154 158 162 167 171 175 180 185 0
d 190 189 171 0
d 191 189 171 0
d 192 1 2 6 7 12 13 18 23 24 29 30 35 40 45 50 55 60 65 70 75 80 85 90 95 100 105 110 115 120 125 130 135 140 145 150 154 158 162 167 171 175 180 185 189 0
d 194 154 13 0
d 195 193 154 13 0
d 196 193 154 13 0
d 197 1 2 6 7 12 13 18 23 24 29 30 35 40 45 50 55 60 65 70 75 80 85 90 95 100 105 110 115 120 125 130 135 140 145 150 154 158 162 167 171 175 180 185 189 193 0
d 199 193 175 0
d 200 198 193 175 0
d 201 198 193 175 0
d 202 1 2 6 7 12 13 18 23 24 29 30 35 40 45 50 55 60 65 70 75 80 85 90 95 100 105 110 115 120 125 130 135 140 145 150 154 158 162 167 171 175 180 185 189 193 198 0
d 204 203 7 13 0
d 205 203 7 13 0
d 206 1 2 6 7 12 13 18 23 24 29 30 35 40 45 50 55 60 65 70 75 80 85 90 95 100 105 110 115 120 125 130 135 140 145 150 154 158 162 167 171 175 180 185 189 193 198 203 0
d 208 203 175 0
d 209 207 203 175 0
d 210 207 203 175 0
d 211 1 2 6 7 12 13 18 23 24 29 30 35 40 45 50 55 60 65 70 75 80 85 90 95 100 105 110 115 120 125 130 135 140 145 150 154 158 162 167 171 175 180 185 189 193 198 203 207 0
d 213 24 171 0
d 214 212 24 171 0
d 215 212 24 171 0
d 216 1 2 6 7 12 13 18 23 24 29 30 35 40 45 50 55 60 65 70 75 80 85 90 95 100 105 110 115 120 125 130 135 140 145 150 154 158 162 167 171 175 180 185 189 193 198 203 207 212 0
d 218 162 212 0
d 219 217 162 212 0
d 220 217 162 212 0
d 221 1 2 6 7 12 13 18 23 24 29 30 35 40 45 50 55 60 65 70 75 80 85 90 95 100 105 110 115 120 125 130 135 140 145 150 154 158 162 167 171 175 180 185 189 193 198 203 207 212 217 0
d 223 7 158 0
d 224 222 7 158 0
d 225 222 7 158 0
d 226 1 2 6 7 12 13 18 23 24 29 30 35 40 45 50 55 60 65 70 75 80 85 90 95 100 105 110 115 120 125 130 135 140 145 150 154 158 162 167 171 175 180 185 189 193 198 203 207 212 217 222 0
d 228 222 212 0
d 229 227 222 212 0
d 230 227 222 212 0
d 231 1 2 6 7 12 13 18 23 24 29 30 35 40 45 50 55 60 65 70 75 80 85 90 95 100 105 110 115 120 125 130 135 140 145 150 154 158 162 167 171 175 180 185 189 193 198 203 207 212 217 222 227 0
d 233 232 193 0
d 234 232 193 0
d 235 1 2 6 7 12 13 18 23 24 29 30 35 40 45 50 55 60 65 70 75 80 85 90 95 100 105 110 115 120 125 130 135 140 145 150 154 158 162 167 171 175 180 185 189 193 198 203 207 212 217 222 227 232 0
d 237 236 212 0
d 238 236 212 0
d 239 1 2 6 7 12 13 18 23 24 29 30 35 40 45 50 55 60 65 70 75 80 85 90 95 100 105 110 115 120 125 130 135 140 145 150 154 158 162 167 171 175 180 185 189 193 198 203 207 212 217 222 227 232 236 0
d 241 203 212 0
d 242 240 203 212 0
d 243 240 203 212 0
d 244 1 2 6 7 12 13 18 23 24 29 30 35 40 45 50 55 60 65 70 75 80 85 90 95 100 105 110 115 120 125 130 135 140 145 150 154 158 162 167 171 175 180 185 189 193 198 203 207 212 217 222 227 232 236 240 0
d 246 167 30 0
d 247 245 167 30 0
d 248 245 167 30 0
d 249 1 2 6 7 12 13 18 23 24 29 30 35 40 45 50 55 60 65 70 75 80 85 90 95 100 105 110 115 120 125 130 135 140 145 150 154 158 162 167 171 175 180 185 189 193 198 203 207 212 217 222 227 232 236 240 245 0
d 251 162 245 0
d 252 250 162 245 0
d 253 250 162 245 0
d 254 1 2 6 7 12 13 18 23 24 29 30 35 40 45 50 55 60 65 70 75 80 85 90 95 100 105 110 115 120 125 130 135 140 145 150 154 158 162 167 171 175 180 185 189 193 198 203 207 212 217 222 227 232 236 240 245 250 0
d 256 222 245 0
d 257 255 222 245 0
d 258 255 222 245 0
d 259 1 2 6 7 12 13 18 23 24 29 30 35 40 45 50 55 60 65 70 75 80 85 90 95 100 105 110 115 120 125 130 135 140 145 150 154 158 162 167 171 175 180 185 189 193 198 203 207 212 217 222 227 232 236 240 245 250 255 0
d 261 193 245 0
d 262 260 193 245 0
d 263 260 193 245 0
d 264 1 2 6 7 12 13 18 23 24 29 30 35 40 45 50 55 60 65 70 75 80 85 90 95 100 105 110 115 120 125 130 135 140 145 150 154 158 162 167 171 175 180 185 189 193 198 203 207 212 217 222 227 232 236 240 245 250 255 260 0
d 266 203 245 0
d 267 265 203 245 0
d 268 265 203 245 0
d 269 1 2 6 7 12 13 18 23 24 29 30 35 40 45 50 55 60 65 70 75 80 85 90 95 100 105 110 115 120 125 130 135 140 145 150 154 158 162 167 171 175 180 185 189 193 198 203 207 212 217 222 227 232 236 240 245 250 255 260 265 0
d 271 270 24 30 0
d 272 270 24 30 0
d 273 1 2 6 7 12 13 18 23 24 29 30 35 40 45 50 55 60 65 70 75 80 85 90 95 100 105 110 115 120 125 130 135 140 145 150 154 158 162 167 171 175 180 185 189 193 198 203 207 212 217 222 227 232 236 240 245 250 255 260 265 270 0
d 275 162 270 0
d 276 274 162 270 0
d 277 274 162 270 0
d 278 1 2 6 7 12 13 18 23 24 29 30 35 40 45 50 55 60 65 70 75 80 85 90 95 100 105 110 115 120 125 130 135 140 145 150 154 158 162 167 171 175 180 185 189 193 198 203 207 212 217 222 227 232 236 240 245 250 255 260 265 270 274 0
d 280 222 270 0
d 281 279 222 270 0
d 282 279 222 270 0
d 283 1 2 6 7 12 13 18 23 24 29 30 35 40 45 50 55 60 65 70 75 80 85 90 95 100 105 110 115 120 125 130 135 140 145 150 154 158 162 167 171 175 180 185 189 193 198 203 207 212 217 222 227 232 236 240 245 250 255 260 265 270 274 279 0
d 285 193 270 0
d 286 284 193 270 0
d 287 284 193 270 0
d 288 1 2 6 7 12 13 18 23 24 29 30 35 40 45 50 55 60 65 70 75 80 85 90 95 100 105 110 115 120 125 130 135 140 145 150 154 158 162 167 171 175 180 185 189 193 198 203 207 212 217 222 227 232 236 240 245 250 255 260 265 270 274 279 284 0
d 290 289 203 0
d 291 289 203 0
d 292 1 2 6 7 12 13 18 23 24 29 30 35 40 45 50 55 60 65 70 75 80 85 90 95 100 105 110 115 120 125 130 135 140 145 150 154 158 162 167 171 175 180 185 189 193 198 203 207 212 217 222 227 232 236 240 245 250 255 260 265 270 274 279 284 289 0
d 294 293 270 0
d 295 293 270 0
d 296 1 2 6 7 12 13 18 23 24 29 30 35 40 45 50 55 60 65 70 75 80 85 90 95 100 105 110 115 120 125 130 135 140 145 150 154 158 162 167 171 175 180 185 189 193 198 203 207 212 217 222 227 232 236 240 245 250 255 260 265 270 274 279 284 289 293 0
d 298 193 212 0
d 299 297 193 212 0
d 300 297 193 212 0
d 301 1 2 6 7 12 13 18 23 24 29 30 35 40 45 50 55 60 65 70 75 80 85 90 95 100 105 110 115 120 125 130 135 140 145 150 154 158 162 167 171 175 180 185 189 193 198 203 207 212 217 222 227 232 236 240 245 250 255 260 265 270 274 279 284 289 293 297 0
d 303 203 270 0
d 304 302 203 270 0
d 305 302 203 270 0
d 306 1 2 6 7 12 13 18 23 24 29 30 35 40 45 50 55 60 65 70 75 80 85 90 95 100 105 110 115 120 125 130 135 140 145 150 154 158 162 167 171 175 180 185 189 193 198 203 207 212 217 222 227 232 236 240 245 250 255 260 265 270 274 279 284 289 293 297 302 0
d 308 150 307 0
d 309 150 307 180 0
d 311 150 310 0
d 313 150 310 7 185 189 13 0
d 314 150 307 180 310 7 185 189 13 0
d 316 150 315 0
d 317 150 315 198 0
d 319 150 318 0
d 320 150 318 207 0
d 321 150 315 198 318 207 0
d 322 150 307 180 310 7 185 189 13 315 198 318 207 0
d 324 150 323 0
d 325 150 323 217 0
d 327 442 2 227 0
d 328 150 323 217 442 2 227 0
d 331 150 330 0
d 332 150 330 240 0
d 333 446 232 236 2 150 330 240 0
d 334 150 323 217 442 2 227 446 232 236 330 240 0
d 335 150 307 180 310 7 185 189 13 315 198 318 207 323 217 442 2 227 446 232 236 330 240 0
d 337 150 336 0
d 338 150 336 250 0
d 340 456 2 255 0
d 341 150 336 250 456 2 255 0
d 343 150 342 0
d 344 150 342 260 0
d 346 150 345 0
d 347 150 345 265 0
d 348 150 342 260 345 265 0
d 349 150 336 250 456 2 255 342 260 345 265 0
d 351 150 350 0
d 352 150 350 274 0
d 354 150 353 0
d 355 150 353 279 0
d 356 150 350 274 353 279 0
d 358 150 357 0
d 359 150 357 284 0
d 361 150 357 284 473 289 293 2 0
d 362 150 350 274 353 279 357 284 473 289 293 2 0
d 363 150 336 250 456 2 255 342 260 345 265 350 274 353 279 357 284 473 289 293 0
d 364 150 307 180 310 7 185 189 13 315 198 318 207 323 217 442 2 227 446 232 236 330 240 336 250 456 255 342 260 345 265 350 274 353 279 357 284 473 289 293 0
d 366 2 365 0
d 367 2 365 180 0
d 369 2 368 0
d 370 2 368 7 185 189 13 0
d 371 2 365 180 368 7 185 189 13 0
d 373 2 372 0
d 374 2 372 198 0
d 376 2 375 0
d 377 2 375 207 0
d 378 2 372 198 375 207 0
d 379 2 365 180 368 7 185 189 13 372 198 375 207 0
d 381 2 380 0
d 382 2 380 217 0
d 384 2 383 0
d 385 2 383 227 0
d 386 2 380 217 383 227 0
d 388 2 387 0
d 389 2 387 297 0
d 391 2 390 0
d 392 2 390 240 0
d 393 2 387 297 390 240 0
d 394 2 380 217 383 227 387 297 390 240 0
d 395 2 365 180 368 7 185 189 13 372 198 375 207 380 217 383 227 387 297 390 240 0
d 397 2 396 0
d 398 2 396 250 0
d 400 2 399 0
d 401 2 399 255 0
d 402 2 396 250 399 255 0
d 404 2 403 0
d 405 2 403 260 0
d 407 2 406 0
d 408 2 406 265 0
d 409 2 403 260 406 265 0
d 410 2 396 250 399 255 403 260 406 265 0
d 412 2 411 0
d 413 2 411 274 0
d 415 2 414 0
d 416 2 414 279 0
d 417 2 411 274 414 279 0
d 419 2 418 0
d 420 2 418 284 0
d 422 2 421 0
d 423 2 421 302 0
d 424 2 418 284 421 302 0
d 425 2 411 274 414 279 418 284 421 302 0
d 426 2 396 250 399 255 403 260 406 265 411 274 414 279 418 284 421 302 0
d 427 2 365 180 368 7 185 189 13 372 198 375 207 380 217 383 227 387 297 390 240 396 250 399 255 403 260 406 265 411 274 414 279 418 284 421 302 0
d 428 150 307 180 310 7 185 189 13 315 198 318 207 323 217 442 2 227 446 232 236 330 240 336 250 456 255 342 260 345 265 350 274 353 279 357 284 473 289 293 365 368 372 375 380 383 387 297 390 396 399 403 406 411 414 418 421 302 0
d 429 1 307 0
d 430 1 307 40 0
d 431 1 310 0
d 432 1 310 50 0
d 433 1 307 40 310 50 0
d 434 1 315 0
d 435 1 315 60 0
d 436 1 318 0
d 437 1 318 70 0
d 438 1 315 60 318 70 0
d 439 1 307 40 310 50 315 60 318 70 0
d 440 1 323 0
d 441 1 323 80 0
d 443 1 442 0
d 444 1 442 85 0
d 445 1 323 80 442 85 0
d 447 1 446 0
d 448 1 446 90 0
d 449 1 330 0
d 450 1 330 95 0
d 451 1 446 90 330 95 0
d 452 1 323 80 442 85 446 90 330 95 0
d 453 1 307 40 310 50 315 60 318 70 323 80 442 85 446 90 330 95 0
d 454 1 336 0
d 455 1 336 105 0
d 457 1 456 0
d 458 1 456 110 0
d 459 1 336 105 456 110 0
d 460 1 342 0
d 461 1 342 115 0
d 462 1 345 0
d 463 1 345 120 0
d 464 1 342 115 345 120 0
d 465 1 336 105 456 110 342 115 345 120 0
d 466 1 350 0
d 467 1 350 130 0
d 468 1 353 0
d 469 1 353 135 0
d 470 1 350 130 353 135 0
d 471 1 357 0
d 472 1 357 140 0
d 474 1 473 0
d 475 1 473 145 0
d 476 1 357 140 473 145 0
d 477 1 350 130 353 135 357 140 473 145 0
d 478 1 336 105 456 110 342 115 345 120 350 130 353 135 357 140 473 145 0
d 479 1 307 40 310 50 315 60 318 70 323 80 442 85 446 90 330 95 336 105 456 110 342 115 345 120 350 130 353 135 357 140 473 145 0
d 480 2 365 40 0
d 481 2 368 50 0
d 482 2 365 40 368 50 0
d 483 2 372 60 0
d 484 2 375 70 0
d 485 2 372 60 375 70 0
d 486 2 365 40 368 50 372 60 375 70 0
d 487 2 380 80 0
d 488 2 383 85 0
d 489 2 380 80 383 85 0
d 490 2 387 90 0
d 491 2 390 95 0
d 492 2 387 90 390 95 0
d 493 2 380 80 383 85 387 90 390 95 0
d 494 2 365 40 368 50 372 60 375 70 380 80 383 85 387 90 390 95 0
d 495 2 396 105 0
d 496 2 399 110 0
d 497 2 396 105 399 110 0
d 498 2 403 115 0
d 499 2 406 120 0
d 500 2 403 115 406 120 0
d 501 2 396 105 399 110 403 115 406 120 0
d 502 2 411 130 0
d 503 2 414 135 0
d 504 2 411 130 414 135 0
d 505 2 418 140 0
d 506 2 421 145 0
d 507 2 418 140 421 145 0
d 508 2 411 130 414 135 418 140 421 145 0
d 509 2 396 105 399 110 403 115 406 120 411 130 414 135 418 140 421 145 0
d 510 2 365 40 368 50 372 60 375 70 380 80 383 85 387 90 390 95 396 105 399 110 403 115 406 120 411 130 414 135 418 140 421 145 0
d 511 1 307 40 310 50 315 60 318 70 323 80 442 85 446 90 330 95 336 105 456 110 342 115 345 120 350 130 353 135 357 140 473 145 2 365 368 372 375 380 383 387 390 396 399 403 406 411 414 418 421 0
d 512 150 307 180 310 7 185 189 13 315 198 318 207 323 217 442 2 227 446 232 236 330 240 336 250 456 255 342 260 345 265 350 274 353 279 357 284 473 289 293 365 368 372 375 380 383 387 297 390 396 399 403 406 411 414 418 421 302 1 40 50 60 70 80 85 90 95 105 110 115 120 130 135 140 145 0
d 513 1 2 6 7 12 13 18 23 24 29 30 35 40 45 50 55 60 65 70 75 80 85 90 95 100 105 110 115 120 125 130 135 140 145 150 154 158 162 167 171 175 180 185 189 193 198 203 207 212 217 222 227 232 236 240 245 250 255 260 265 270 274 279 284 289 293 297 302 307 310 315 318 323 442 446 330 336 456 342 345 350 353 357 473 365 368 372 375 380 383 387 390 396 399 403 406 411 414 418 421 0
3 2 0
-3 -2 0
4 -1 -3 0
4 1 3 0
-4 -1 3 0
-4 1 -3 0
5 4 0
-5 -4 0
8 7 0
-8 -7 0
9 -6 -8 0
9 6 8 0
-9 -6 8 0
-9 6 -8 0
10 9 0
-10 -9 0
11 -5 0
11 -10 0
-11 5 10 0
14 13 0
-14 -13 0
15 -12 -14 0
15 12 14 0
-15 -12 14 0
-15 12 -14 0
16 15 0
-16 -15 0
17 -11 0
17 -16 0
-17 11 16 0
-19 6 0
-19 12 0
19 -6 -12 0
20 -18 -19 0
20 18 19 0
-20 -18 19 0
-20 18 -19 0
21 20 0
-21 -20 0
22 -17 0
22 -21 0
-22 17 21 0
25 24 0
-25 -24 0
26 -23 -25 0
26 23 25 0
-26 -23 25 0
-26 23 -25 0
27 26 0
-27 -26 0
28 -22 0
28 -27 0
-28 22 27 0
31 30 0
-31 -30 0
32 -29 -31 0
32 29 31 0
-32 -29 31 0
-32 29 -31 0
33 32 0
-33 -32 0
34 -28 0
34 -33 0
-34 28 33 0
-36 23 0
-36 29 0
36 -23 -29 0
37 -35 -36 0
37 35 36 0
-37 -35 36 0
-37 35 -36 0
38 37 0
-38 -37 0
39 -34 0
39 -38 0
-39 34 38 0
-41 18 0
-41 35 0
41 -18 -35 0
42 -40 -41 0
42 40 41 0
-42 -40 41 0
-42 40 -41 0
43 42 0
-43 -42 0
44 -39 0
44 -43 0
-44 39 43 0
-46 7 0
-46 12 0
46 -7 -12 0
47 -45 -46 0
47 45 46 0
-47 -45 46 0
-47 45 -46 0
48 47 0
-48 -47 0
49 -44 0
49 -48 0
-49 44 48 0
-51 45 0
-51 35 0
51 -45 -35 0
52 -50 -51 0
52 50 51 0
-52 -50 51 0
-52 50 -51 0
53 52 0
-53 -52 0
54 -49 0
54 -53 0
-54 49 53 0
-56 6 0
-56 13 0
56 -6 -13 0
57 -55 -56 0
57 55 56 0
-57 -55 56 0
-57 55 -56 0
58 57 0
-58 -57 0
59 -54 0
59 -58 0
-59 54 58 0
-61 55 0
-61 35 0
61 -55 -35 0
62 -60 -61 0
62 60 61 0
-62 -60 61 0
-62 60 -61 0
63 62 0
-63 -62 0
64 -59 0
64 -63 0
-64 59 63 0
-66 7 0
-66 13 0
66 -7 -13 0
67 -65 -66 0
67 65 66 0
-67 -65 66 0
-67 65 -66 0
68 67 0
-68 -67 0
69 -64 0
69 -68 0
-69 64 68 0
-71 65 0
-71 35 0
71 -65 -35 0
72 -70 -71 0
72 70 71 0
-72 -70 71 0
-72 70 -71 0
73 72 0
-73 -72 0
74 -69 0
74 -73 0
-74 69 73 0
-76 24 0
-76 29 0
76 -24 -29 0
77 -75 -76 0
77 75 76 0
-77 -75 76 0
-77 75 -76 0
78 77 0
-78 -77 0
79 -74 0
79 -78 0
-79 74 78 0
-81 18 0
-81 75 0
81 -18 -75 0
82 -80 -81 0
82 80 81 0
-82 -80 81 0
-82 80 -81 0
83 82 0
-83 -82 0
84 -79 0
84 -83 0
-84 79 83 0
-86 45 0
-86 75 0
86 -45 -75 0
87 -85 -86 0
87 85 86 0
-87 -85 86 0
-87 85 -86 0
88 87 0
-88 -87 0
89 -84 0
89 -88 0
-89 84 88 0
-91 55 0
-91 75 0
91 -55 -75 0
92 -90 -91 0
92 90 91 0
-92 -90 91 0
-92 90 -91 0
93 92 0
-93 -92 0
94 -89 0
94 -93 0
-94 89 93 0
-96 65 0
-96 75 0
96 -65 -75 0
97 -95 -96 0
97 95 96 0
-97 -95 96 0
-97 95 -96 0
98 97 0
-98 -97 0
99 -94 0
99 -98 0
-99 94 98 0
-101 23 0
-101 30 0
101 -23 -30 0
102 -100 -101 0
102 100 101 0
-102 -100 101 0
-102 100 -101 0
103 102 0
-103 -102 0
104 -99 0
104 -103 0
-104 99 103 0
-106 18 0
-106 100 0
106 -18 -100 0
107 -105 -106 0
107 105 106 0
-107 -105 106 0
-107 105 -106 0
108 107 0
-108 -107 0
109 -104 0
109 -108 0
-109 104 108 0
-111 45 0
-111 100 0
111 -45 -100 0
112 -110 -111 0
112 110 111 0
-112 -110 111 0
-112 110 -111 0
113 112 0
-113 -112 0
114 -109 0
114 -113 0
-114 109 113 0
-116 55 0
-116 100 0
116 -55 -100 0
117 -115 -116 0
117 115 116 0
-117 -115 116 0
-117 115 -116 0
118 117 0
-118 -117 0
119 -114 0
119 -118 0
-119 114 118 0
-121 65 0
-121 100 0
121 -65 -100 0
122 -120 -121 0
122 120 121 0
-122 -120 121 0
-122 120 -121 0
123 122 0
-123 -122 0
124 -119 0
124 -123 0
-124 119 123 0
-126 24 0
-126 30 0
126 -24 -30 0
127 -125 -126 0
127 125 126 0
-127 -125 126 0
-127 125 -126 0
128 127 0
-128 -127 0
129 -124 0
129 -128 0
-129 124 128 0
-131 18 0
-131 125 0
131 -18 -125 0
132 -130 -131 0
132 130 131 0
-132 -130 131 0
-132 130 -131 0
133 132 0
-133 -132 0
134 -129 0
134 -133 0
-134 129 133 0
-136 45 0
-136 125 0
136 -45 -125 0
137 -135 -136 0
137 135 136 0
-137 -135 136 0
-137 135 -136 0
138 137 0
-138 -137 0
139 -134 0
139 -138 0
-139 134 138 0
-141 55 0
-141 125 0
141 -55 -125 0
142 -140 -141 0
142 140 141 0
-142 -140 141 0
-142 140 -141 0
143 142 0
-143 -142 0
144 -139 0
144 -143 0
-144 139 143 0
-146 65 0
-146 125 0
146 -65 -125 0
147 -145 -146 0
147 145 146 0
-147 -145 146 0
-147 145 -146 0
148 147 0
-148 -147 0
149 -144 0
149 -148 0
-149 144 148 0
151 -150 -3 0
151 150 3 0
-151 -150 3 0
-151 150 -3 0
152 151 0
-152 -151 0
153 -149 0
153 -152 0
-153 149 152 0
155 -154 -8 0
155 154 8 0
-155 -154 8 0
-155 154 -8 0
156 155 0
-156 -155 0
157 -153 0
157 -156 0
-157 153 156 0
159 -158 -14 0
159 158 14 0
-159 -158 14 0
-159 158 -14 0
160 159 0
-160 -159 0
161 -157 0
161 -160 0
-161 157 160 0
-163 154 0
-163 158 0
163 -154 -158 0
164 -162 -163 0
164 162 163 0
-164 -162 163 0
-164 162 -163 0
165 164 0
-165 -164 0
166 -161 0
166 -165 0
-166 161 165 0
168 -167 -25 0
168 167 25 0
-168 -167 25 0
-168 167 -25 0
169 168 0
-169 -168 0
170 -166 0
170 -169 0
-170 166 169 0
172 -171 -31 0
172 171 31 0
-172 -171 31 0
-172 171 -31 0
173 172 0
-173 -172 0
174 -170 0
174 -173 0
-174 170 173 0
-176 167 0
-176 171 0
176 -167 -171 0
177 -175 -176 0
177 175 176 0
-177 -175 176 0
-177 175 -176 0
178 177 0
-178 -177 0
179 -174 0
179 -178 0
-179 174 178 0
-181 162 0
-181 175 0
181 -162 -175 0
182 -180 -181 0
182 180 181 0
-182 -180 181 0
-182 180 -181 0
183 182 0
-183 -182 0
184 -179 0
184 -183 0
-184 179 183 0
186 -185 -167 0
186 185 167 0
-186 -185 167 0
-186 185 -167 0
187 186 0
-187 -186 0
188 -184 0
188 -187 0
-188 184 187 0
190 -189 -171 0
190 189 171 0
-190 -189 171 0
-190 189 -171 0
191 190 0
-191 -190 0
192 -188 0
192 -191 0
-192 188 191 0
-194 154 0
-194 13 0
194 -154 -13 0
195 -193 -194 0
195 193 194 0
-195 -193 194 0
-195 193 -194 0
196 195 0
-196 -195 0
197 -192 0
197 -196 0
-197 192 196 0
-199 193 0
-199 175 0
199 -193 -175 0
200 -198 -199 0
200 198 199 0
-200 -198 199 0
-200 198 -199 0
201 200 0
-201 -200 0
202 -197 0
202 -201 0
-202 197 201 0
204 -203 -66 0
204 203 66 0
-204 -203 66 0
-204 203 -66 0
205 204 0
-205 -204 0
206 -202 0
206 -205 0
-206 202 205 0
-208 203 0
-208 175 0
208 -203 -175 0
209 -207 -208 0
209 207 208 0
-209 -207 208 0
-209 207 -208 0
210 209 0
-210 -209 0
211 -206 0
211 -210 0
-211 206 210 0
-213 24 0
-213 171 0
213 -24 -171 0
214 -212 -213 0
214 212 213 0
-214 -212 213 0
-214 212 -213 0
215 214 0
-215 -214 0
216 -211 0
216 -215 0
-216 211 215 0
-218 162 0
-218 212 0
218 -162 -212 0
219 -217 -218 0
219 217 218 0
-219 -217 218 0
-219 217 -218 0
220 219 0
-220 -219 0
221 -216 0
221 -220 0
-221 216 220 0
-223 7 0
-223 158 0
223 -7 -158 0
224 -222 -223 0
224 222 223 0
-224 -222 223 0
-224 222 -223 0
225 224 0
-225 -224 0
226 -221 0
226 -225 0
-226 221 225 0
-228 222 0
-228 212 0
228 -222 -212 0
229 -227 -228 0
229 227 228 0
-229 -227 228 0
-229 227 -228 0
230 229 0
-230 -229 0
231 -226 0
231 -230 0
-231 226 230 0
233 -232 -193 0
233 232 193 0
-233 -232 193 0
-233 232 -193 0
234 233 0
-234 -233 0
235 -231 0
235 -234 0
-235 231 234 0
237 -236 -212 0
237 236 212 0
-237 -236 212 0
-237 236 -212 0
238 237 0
-238 -237 0
239 -235 0
239 -238 0
-239 235 238 0
-241 203 0
-241 212 0
241 -203 -212 0
242 -240 -241 0
242 240 241 0
-242 -240 241 0
-242 240 -241 0
243 242 0
-243 -242 0
244 -239 0
244 -243 0
-244 239 243 0
-246 167 0
-246 30 0
246 -167 -30 0
247 -245 -246 0
247 245 246 0
-247 -245 246 0
-247 245 -246 0
248 247 0
-248 -247 0
249 -244 0
249 -248 0
-249 244 248 0
-251 162 0
-251 245 0
251 -162 -245 0
252 -250 -251 0
252 250 251 0
-252 -250 251 0
-252 250 -251 0
253 252 0
-253 -252 0
254 -249 0
254 -253 0
-254 249 253 0
-256 222 0
-256 245 0
256 -222 -245 0
257 -255 -256 0
257 255 256 0
-257 -255 256 0
-257 255 -256 0
258 257 0
-258 -257 0
259 -254 0
259 -258 0
-259 254 258 0
-261 193 0
-261 245 0
261 -193 -245 0
262 -260 -261 0
262 260 261 0
-262 -260 261 0
-262 260 -261 0
263 262 0
-263 -262 0
264 -259 0
264 -263 0
-264 259 263 0
-266 203 0
-266 245 0
266 -203 -245 0
267 -265 -266 0
267 265 266 0
-267 -265 266 0
-267 265 -266 0
268 267 0
-268 -267 0
269 -264 0
269 -268 0
-269 264 268 0
271 -270 -126 0
271 270 126 0
-271 -270 126 0
-271 270 -126 0
272 271 0
-272 -271 0
273 -269 0
273 -272 0
-273 269 272 0
-275 162 0
-275 270 0
275 -162 -270 0
276 -274 -275 0
276 274 275 0
-276 -274 275 0
-276 274 -275 0
277 276 0
-277 -276 0
278 -273 0
278 -277 0
-278 273 277 0
-280 222 0
-280 270 0
280 -222 -270 0
281 -279 -280 0
281 279 280 0
-281 -279 280 0
-281 279 -280 0
282 281 0
-282 -281 0
283 -278 0
283 -282 0
-283 278 282 0
-285 193 0
-285 270 0
285 -193 -270 0
286 -284 -285 0
286 284 285 0
-286 -284 285 0
-286 284 -285 0
287 286 0
-287 -286 0
288 -283 0
288 -287 0
-288 283 287 0
290 -289 -203 0
290 289 203 0
-290 -289 203 0
-290 289 -203 0
291 290 0
-291 -290 0
292 -288 0
292 -291 0
-292 288 291 0
294 -293 -270 0
294 293 270 0
-294 -293 270 0
-294 293 -270 0
295 294 0
-295 -294 0
296 -292 0
296 -295 0
-296 292 295 0
-298 193 0
-298 212 0
298 -193 -212 0
299 -297 -298 0
299 297 298 0
-299 -297 298 0
-299 297 -298 0
300 299 0
-300 -299 0
301 -296 0
301 -300 0
-301 296 300 0
-303 203 0
-303 270 0
303 -203 -270 0
304 -302 -303 0
304 302 303 0
-304 -302 303 0
-304 302 -303 0
305 304 0
-305 -304 0
306 -301 0
306 -305 0
-306 301 305 0
-308 150 0
-308 307 0
308 -150 -307 0
-309 308 0
-309 180 0
309 -308 -180 0
-311 150 0
-311 310 0
311 -150 -310 0
-313 311 0
-313 312 0
313 -311 -312 0
314 -309 0
314 -313 0
-314 309 313 0
-316 150 0
-316 315 0
316 -150 -315 0
-317 316 0
-317 198 0
317 -316 -198 0
-319 150 0
-319 318 0
319 -150 -318 0
-320 319 0
-320 207 0
320 -319 -207 0
321 -317 0
321 -320 0
-321 317 320 0
322 -314 0
322 -321 0
-322 314 321 0
-324 150 0
-324 323 0
324 -150 -323 0
-325 324 0
-325 217 0
325 -324 -217 0
-327 326 0
-327 227 0
327 -326 -227 0
328 -325 0
328 -327 0
-328 325 327 0
-331 150 0
-331 330 0
331 -150 -330 0
-332 331 0
-332 240 0
332 -331 -240 0
333 -329 0
333 -332 0
-333 329 332 0
334 -328 0
334 -333 0
-334 328 333 0
335 -322 0
335 -334 0
-335 322 334 0
-337 150 0
-337 336 0
337 -150 -336 0
-338 337 0
-338 250 0
338 -337 -250 0
-340 339 0
-340 255 0
340 -339 -255 0
341 -338 0
341 -340 0
-341 338 340 0
-343 150 0
-343 342 0
343 -150 -342 0
-344 343 0
-344 260 0
344 -343 -260 0
-346 150 0
-346 345 0
346 -150 -345 0
-347 346 0
-347 265 0
347 -346 -265 0
348 -344 0
348 -347 0
-348 344 347 0
349 -341 0
349 -348 0
-349 341 348 0
-351 150 0
-351 350 0
351 -150 -350 0
-352 351 0
-352 274 0
352 -351 -274 0
-354 150 0
-354 353 0
354 -150 -353 0
-355 354 0
-355 279 0
355 -354 -279 0
356 -352 0
356 -355 0
-356 352 355 0
-358 150 0
-358 357 0
358 -150 -357 0
-359 358 0
-359 284 0
359 -358 -284 0
361 -359 0
361 -360 0
-361 359 360 0
362 -356 0
362 -361 0
-362 356 361 0
363 -349 0
363 -362 0
-363 349 362 0
364 -335 0
364 -363 0
-364 335 363 0
-366 2 0
-366 365 0
366 -2 -365 0
-367 366 0
-367 180 0
367 -366 -180 0
-369 2 0
-369 368 0
369 -2 -368 0
-370 369 0
-370 312 0
370 -369 -312 0
371 -367 0
371 -370 0
-371 367 370 0
-373 2 0
-373 372 0
373 -2 -372 0
-374 373 0
-374 198 0
374 -373 -198 0
-376 2 0
-376 375 0
376 -2 -375 0
-377 376 0
-377 207 0
377 -376 -207 0
378 -374 0
378 -377 0
-378 374 377 0
379 -371 0
379 -378 0
-379 371 378 0
-381 2 0
-381 380 0
381 -2 -380 0
-382 381 0
-382 217 0
382 -381 -217 0
-384 2 0
-384 383 0
384 -2 -383 0
385 -384 -227 0
385 384 227 0
-385 -384 227 0
-385 384 -227 0
386 -382 0
386 -385 0
-386 382 385 0
-388 2 0
-388 387 0
388 -2 -387 0
-389 388 0
-389 297 0
389 -388 -297 0
-391 2 0
-391 390 0
391 -2 -390 0
-392 391 0
-392 240 0
392 -391 -240 0
393 -389 0
393 -392 0
-393 389 392 0
394 -386 0
394 -393 0
-394 386 393 0
395 -379 0
395 -394 0
-395 379 394 0
-397 2 0
-397 396 0
397 -2 -396 0
-398 397 0
-398 250 0
398 -397 -250 0
-400 2 0
-400 399 0
400 -2 -399 0
-401 400 0
-401 255 0
401 -400 -255 0
402 -398 0
402 -401 0
-402 398 401 0
-404 2 0
-404 403 0
404 -2 -403 0
-405 404 0
-405 260 0
405 -404 -260 0
-407 2 0
-407 406 0
407 -2 -406 0
-408 407 0
-408 265 0
408 -407 -265 0
409 -405 0
409 -408 0
-409 405 408 0
410 -402 0
410 -409 0
-410 402 409 0
-412 2 0
-412 411 0
412 -2 -411 0
-413 412 0
-413 274 0
413 -412 -274 0
-415 2 0
-415 414 0
415 -2 -414 0
-416 415 0
-416 279 0
416 -415 -279 0
417 -413 0
417 -416 0
-417 413 416 0
-419 2 0
-419 418 0
419 -2 -418 0
-420 419 0
-420 284 0
420 -419 -284 0
-422 2 0
-422 421 0
422 -2 -421 0
-423 422 0
-423 302 0
423 -422 -302 0
424 -420 0
424 -423 0
-424 420 423 0
425 -417 0
425 -424 0
-425 417 424 0
426 -410 0
426 -425 0
-426 410 425 0
427 -395 0
427 -426 0
-427 395 426 0
428 -364 0
428 -427 0
-428 364 427 0
-429 1 0
-429 307 0
429 -1 -307 0
-430 429 0
-430 40 0
430 -429 -40 0
-431 1 0
-431 310 0
431 -1 -310 0
-432 431 0
-432 50 0
432 -431 -50 0
433 -430 0
433 -432 0
-433 430 432 0
-434 1 0
-434 315 0
434 -1 -315 0
-435 434 0
-435 60 0
435 -434 -60 0
-436 1 0
-436 318 0
436 -1 -318 0
-437 436 0
-437 70 0
437 -436 -70 0
438 -435 0
438 -437 0
-438 435 437 0
439 -433 0
439 -438 0
-439 433 438 0
-440 1 0
-440 323 0
440 -1 -323 0
-441 440 0
-441 80 0
441 -440 -80 0
-443 1 0
-443 442 0
443 -1 -442 0
-444 443 0
-444 85 0
444 -443 -85 0
445 -441 0
445 -444 0
-445 441 444 0
-447 1 0
-447 446 0
447 -1 -446 0
-448 447 0
-448 90 0
448 -447 -90 0
-449 1 0
-449 330 0
449 -1 -330 0
-450 449 0
-450 95 0
450 -449 -95 0
451 -448 0
451 -450 0
-451 448 450 0
452 -445 0
452 -451 0
-452 445 451 0
453 -439 0
453 -452 0
-453 439 452 0
-454 1 0
-454 336 0
454 -1 -336 0
-455 454 0
-455 105 0
455 -454 -105 0
-457 1 0
-457 456 0
457 -1 -456 0
-458 457 0
-458 110 0
458 -457 -110 0
459 -455 0
459 -458 0
-459 455 458 0
-460 1 0
-460 342 0
460 -1 -342 0
-461 460 0
-461 115 0
461 -460 -115 0
-462 1 0
-462 345 0
462 -1 -345 0
-463 462 0
-463 120 0
463 -462 -120 0
464 -461 0
464 -463 0
-464 461 463 0
465 -459 0
465 -464 0
-465 459 464 0
-466 1 0
-466 350 0
466 -1 -350 0
-467 466 0
-467 130 0
467 -466 -130 0
-468 1 0
-468 353 0
468 -1 -353 0
-469 468 0
-469 135 0
469 -468 -135 0
470 -467 0
470 -469 0
-470 467 469 0
-471 1 0
-471 357 0
471 -1 -357 0
-472 471 0
-472 140 0
472 -471 -140 0
-474 1 0
-474 473 0
474 -1 -473 0
-475 474 0
-475 145 0
475 -474 -145 0
476 -472 0
476 -475 0
-476 472 475 0
477 -470 0
477 -476 0
-477 470 476 0
478 -465 0
478 -477 0
-478 465 477 0
479 -453 0
479 -478 0
-479 453 478 0
-480 366 0
-480 40 0
480 -366 -40 0
-481 369 0
-481 50 0
481 -369 -50 0
482 -480 0
482 -481 0
-482 480 481 0
-483 373 0
-483 60 0
483 -373 -60 0
-484 376 0
-484 70 0
484 -376 -70 0
485 -483 0
485 -484 0
-485 483 484 0
486 -482 0
486 -485 0
-486 482 485 0
-487 381 0
-487 80 0
487 -381 -80 0
-488 384 0
-488 85 0
488 -384 -85 0
489 -487 0
489 -488 0
-489 487 488 0
-490 388 0
-490 90 0
490 -388 -90 0
-491 391 0
-491 95 0
491 -391 -95 0
492 -490 0
492 -491 0
-492 490 491 0
493 -489 0
493 -492 0
-493 489 492 0
494 -486 0
494 -493 0
-494 486 493 0
-495 397 0
-495 105 0
495 -397 -105 0
-496 400 0
-496 110 0
496 -400 -110 0
497 -495 0
497 -496 0
-497 495 496 0
-498 404 0
-498 115 0
498 -404 -115 0
-499 407 0
-499 120 0
499 -407 -120 0
500 -498 0
500 -499 0
-500 498 499 0
501 -497 0
501 -500 0
-501 497 500 0
-502 412 0
-502 130 0
502 -412 -130 0
-503 415 0
-503 135 0
503 -415 -135 0
504 -502 0
504 -503 0
-504 502 503 0
-505 419 0
-505 140 0
505 -419 -140 0
-506 422 0
-506 145 0
506 -422 -145 0
507 -505 0
507 -506 0
-507 505 506 0
508 -504 0
508 -507 0
-508 504 507 0
509 -501 0
509 -508 0
-509 501 508 0
510 -494 0
510 -509 0
-510 494 509 0
511 -479 0
511 -510 0
-511 479 510 0
512 -428 -511 0
512 428 511 0
-512 -428 511 0
-512 428 -511 0
513 -306 0
513 -512 0
-513 306 512 0
513 0
